Mo2 
1.0
3.2732341201230786e+00 0.0000000000000000e+00 0.0000000000000000e+00
7.9029560157836293e-18 3.2732341201230786e+00 0.0000000000000000e+00
3.3750606824838674e-18 7.7075230940262676e-18 3.2732341201230786e+00
Mo 
2 
Cartesian
0.0000000000000000e+00 0.0000000000000000e+00 0.0000000000000000e+00
1.6366170600601226e+00 1.6366170600601226e+00 1.6366170600601226e+00
