Mo2                                     
1.1106405414766722
     3.1623672675177916   -0.0000000000000000   -0.0000000000000000
    -0.0000000000000000    3.1623672675177916   -0.0000000000000000
     0.0000000000000000    0.0000000000000000    3.1623672675177916
   Mo
     2
Direct
  0.0000000000000000  0.0000000000000000  0.0000000000000000
  0.5000000000000000  0.5000000000000000  0.5000000000000000

  0.00000000E+00  0.00000000E+00  0.00000000E+00
  0.00000000E+00  0.00000000E+00  0.00000000E+00
