Mo2 
1.0
3.1718297478115205e+00 0.0000000000000000e+00 0.0000000000000000e+00
7.6581234542324698e-18 3.1718297478115205e+00 0.0000000000000000e+00
3.2705017363587961e-18 7.4687450192709002e-18 3.1718297478115205e+00
Mo 
2 
Cartesian
0.0000000000000000e+00 0.0000000000000000e+00 0.0000000000000000e+00
1.5859148739043876e+00 1.5859148739043876e+00 1.5859148739043876e+00
