Mo2 
1.0
2.8069548261000001e+00 0.0000000000000000e+00 0.0000000000000000e+00 
0.0000000000000000e+00 2.8069548261000001e+00 0.0000000000000000e+00 
0.0000000000000000e+00 0.0000000000000000e+00 2.8069548261000001e+00 
Mo 
2 
Cartesian
  -0.0901689327   -0.0901689327   -0.0901689327
   1.4936452229    1.4936452229    1.4936452229
