Mo2 
1.0
2.8069548261059136e+00 0.0000000000000000e+00 0.0000000000000000e+00
6.7771628044047450e-18 2.8069548261059136e+00 0.0000000000000000e+00
2.8942759739844661e-18 6.6095697258851504e-18 2.8069548261059136e+00
Mo 
2 
Cartesian
0.0000000000000000e+00 0.0000000000000000e+00 0.0000000000000000e+00
1.4034774130517420e+00 1.4034774130517420e+00 1.4034774130517420e+00
