Mo2 
1.0
3.5110978460000002e+00 0.0000000000000000e+00 0.0000000000000000e+00 
0.0000000000000000e+00 3.5110978460000002e+00 0.0000000000000000e+00 
0.0000000000000000e+00 0.0000000000000000e+00 3.5110978460000002e+00 
Mo 
2 
Cartesian
   0.0000000000    0.0000000000    0.0000000000
   1.7555489230    1.7555489230    1.7555489230
