Mo2 
1.0
3.5110978459927975e+00 0.0000000000000000e+00 0.0000000000000000e+00
8.4772585234295277e-18 3.5110978459927975e+00 0.0000000000000000e+00
3.6203240762742943e-18 8.2676236224611406e-18 3.5110978459927975e+00
Mo 
2 
Cartesian
0.0000000000000000e+00 0.0000000000000000e+00 0.0000000000000000e+00
1.7555489229948791e+00 1.7555489229948791e+00 1.7555489229948791e+00
