Mo2 
1.0
3.4324645970800653e+00 0.0000000000000000e+00 0.0000000000000000e+00
8.2874049765307442e-18 3.4324645970800653e+00 0.0000000000000000e+00
3.5392446371013493e-18 8.0824649812789426e-18 3.4324645970800653e+00
Mo 
2 
Cartesian
0.0000000000000000e+00 0.0000000000000000e+00 0.0000000000000000e+00
1.7162322985385472e+00 1.7162322985385472e+00 1.7162322985385472e+00
