Mo2 
1.0
2.7935242147648438e+00 0.0000000000000000e+00 0.0000000000000000e+00
6.7447356920142729e-18 2.7935242147648438e+00 0.0000000000000000e+00
2.8804275517160151e-18 6.5779445065212836e-18 2.7935242147648438e+00
Mo 
2 
Cartesian
0.0000000000000000e+00 0.0000000000000000e+00 0.0000000000000000e+00
1.3967621073812129e+00 1.3967621073812129e+00 1.3967621073812129e+00
