Mo2 
1.0
3.3216617571547826e+00 0.0000000000000000e+00 0.0000000000000000e+00
8.0198805837688540e-18 3.3216617571547826e+00 0.0000000000000000e+00
3.4249948478057046e-18 7.8215562236812123e-18 3.3216617571547826e+00
Mo 
2 
Cartesian
0.0000000000000000e+00 0.0000000000000000e+00 0.0000000000000000e+00
1.6608308785759536e+00 1.6608308785759536e+00 1.6608308785759536e+00
