Mo2 
1.0
3.4144932489651549e+00 0.0000000000000000e+00 0.0000000000000000e+00
8.2440146266552715e-18 3.4144932489651549e+00 0.0000000000000000e+00
3.5207142209416935e-18 8.0401476353320388e-18 3.4144932489651549e+00
Mo 
2 
Cartesian
0.0000000000000000e+00 0.0000000000000000e+00 0.0000000000000000e+00
1.7072466244810995e+00 1.7072466244810995e+00 1.7072466244810995e+00
