Mo2 
1.0
3.2233294669700054e+00 0.0000000000000000e+00 0.0000000000000000e+00
7.7824653132008136e-18 3.2233294669700054e+00 0.0000000000000000e+00
3.3236035527617814e-18 7.5900120170421943e-18 3.2233294669700054e+00
Mo 
2 
Cartesian
0.0000000000000000e+00 0.0000000000000000e+00 0.0000000000000000e+00
1.6116647334836076e+00 1.6116647334836076e+00 1.6116647334836076e+00
