Mo2 
1.0
3.3500534055000002e+00 0.0000000000000000e+00 0.0000000000000000e+00 
0.0000000000000000e+00 3.3500534055000002e+00 0.0000000000000000e+00 
0.0000000000000000e+00 0.0000000000000000e+00 3.3500534055000002e+00 
Mo 
2 
Cartesian
  -0.0000000000   -0.0000000000   -0.0000000000
   1.6750267028    1.6750267028    1.6750267028
