Mo2 
1.0
3.3500534054567290e+00 0.0000000000000000e+00 0.0000000000000000e+00
8.0884298960121983e-18 3.3500534054567290e+00 0.0000000000000000e+00
3.4542697277495830e-18 7.8884103737157033e-18 3.3500534054567290e+00
Mo 
2 
Cartesian
0.0000000000000000e+00 0.0000000000000000e+00 0.0000000000000000e+00
1.6750267027269146e+00 1.6750267027269146e+00 1.6750267027269146e+00
