Mo2 
1.0
3.0746712417263344e+00 0.0000000000000000e+00 0.0000000000000000e+00
7.4235421893513617e-18 3.0746712417263344e+00 0.0000000000000000e+00
3.1703207404926486e-18 7.2399647359331154e-18 3.0746712417263344e+00
Mo 
2 
Cartesian
0.0000000000000000e+00 0.0000000000000000e+00 0.0000000000000000e+00
1.5373356208618365e+00 1.5373356208618365e+00 1.5373356208618365e+00
