Mo2 
1.0
3.5025341587056311e+00 0.0000000000000000e+00 0.0000000000000000e+00
8.4565822010279833e-18 3.5025341587056311e+00 0.0000000000000000e+00
3.6114939824895838e-18 8.2474586067263751e-18 3.5025341587056311e+00
Mo 
2 
Cartesian
0.0000000000000000e+00 0.0000000000000000e+00 0.0000000000000000e+00
1.7512670793512997e+00 1.7512670793512997e+00 1.7512670793512997e+00
