Mo2 
1.0
2.9709506700795472e+00 0.0000000000000000e+00 0.0000000000000000e+00
7.1731173539822154e-18 2.9709506700795472e+00 0.0000000000000000e+00
3.0633735407253865e-18 6.9957326792102195e-18 2.9709506700795472e+00
Mo 
2 
Cartesian
0.0000000000000000e+00 0.0000000000000000e+00 0.0000000000000000e+00
1.4854753350384877e+00 1.4854753350384877e+00 1.4854753350384877e+00
