Mo2 
1.0
3.3871761327182535e+00 0.0000000000000000e+00 0.0000000000000000e+00
8.1780596841566295e-18 3.3871761327182535e+00 0.0000000000000000e+00
3.4925473005136821e-18 7.9758236986356694e-18 3.3871761327182535e+00
Mo 
2 
Cartesian
0.0000000000000000e+00 0.0000000000000000e+00 0.0000000000000000e+00
1.6935880663576608e+00 1.6935880663576608e+00 1.6935880663576608e+00
