Mo2 
1.0
3.4678533247721957e+00 0.0000000000000000e+00 0.0000000000000000e+00
8.3728481645648870e-18 3.4678533247721957e+00 0.0000000000000000e+00
3.5757342675566079e-18 8.1657952369054618e-18 3.4678533247721957e+00
Mo 
2 
Cartesian
0.0000000000000000e+00 0.0000000000000000e+00 0.0000000000000000e+00
1.7339266623845970e+00 1.7339266623845970e+00 1.7339266623845970e+00
