Mo2 
1.0
2.6956694688214342e+00 0.0000000000000000e+00 0.0000000000000000e+00
6.5084734129514574e-18 2.6956694688214342e+00 0.0000000000000000e+00
2.7795286567675440e-18 6.3475247789551590e-18 2.6956694688214342e+00
Mo 
2 
Cartesian
0.0000000000000000e+00 0.0000000000000000e+00 0.0000000000000000e+00
1.3478347344095505e+00 1.3478347344095505e+00 1.3478347344095505e+00
