Mo2 
1.0
2.8334370959999999e+00 0.0000000000000000e+00 0.0000000000000000e+00 
0.0000000000000000e+00 2.8334370959999999e+00 0.0000000000000000e+00 
0.0000000000000000e+00 0.0000000000000000e+00 2.8334370959999999e+00 
Mo 
2 
Cartesian
   0.0000000000    0.0000000000    0.0000000000
   1.4167185480    1.4167185480    1.4167185480
