Mo2 
1.0
2.7799632040000000e+00 0.0000000000000000e+00 0.0000000000000000e+00 
0.0000000000000000e+00 2.7799632040000000e+00 0.0000000000000000e+00 
0.0000000000000000e+00 0.0000000000000000e+00 2.7799632040000000e+00 
Mo 
2 
Cartesian
  -0.0000000000   -0.0000000000    0.0000000000
   1.3899816020    1.3899816020    1.3899816020
