Mo2 
1.0
2.7799632040419358e+00 0.0000000000000000e+00 0.0000000000000000e+00
6.7119937409836863e-18 2.7799632040419358e+00 0.0000000000000000e+00
2.8664446734903935e-18 6.5460122341908148e-18 2.7799632040419358e+00
Mo 
2 
Cartesian
0.0000000000000000e+00 0.0000000000000000e+00 0.0000000000000000e+00
1.3899816020197646e+00 1.3899816020197646e+00 1.3899816020197646e+00
