Mo2 
1.0
2.9828345992999998e+00 0.0000000000000000e+00 0.0000000000000000e+00 
0.0000000000000000e+00 2.9828345992999998e+00 0.0000000000000000e+00 
0.0000000000000000e+00 0.0000000000000000e+00 2.9828345992999998e+00 
Mo 
2 
Cartesian
  -0.0000000000   -0.0000000000   -0.0000000000
   1.4914172996    1.4914172996    1.4914172996
