Mo2 
1.0
2.8975636520000001e+00 0.0000000000000000e+00 0.0000000000000000e+00 
0.0000000000000000e+00 2.8975636520000001e+00 0.0000000000000000e+00 
0.0000000000000000e+00 0.0000000000000000e+00 2.8975636520000001e+00 
Mo 
2 
Cartesian
   0.0000000000    0.0000000000    0.0000000000
   1.4487818260    1.4487818260    1.4487818260
