Mo2 
1.0
2.8975636519734196e+00 0.0000000000000000e+00 0.0000000000000000e+00
6.9959304021975269e-18 2.8975636519734196e+00 0.0000000000000000e+00
2.9877035365872745e-18 6.8229273997536329e-18 2.8975636519734196e+00
Mo 
2 
Cartesian
0.0000000000000000e+00 0.0000000000000000e+00 0.0000000000000000e+00
1.4487818259854559e+00 1.4487818259854559e+00 1.4487818259854559e+00
