Mo2 
1.0
3.5281010063187979e+00 0.0000000000000000e+00 0.0000000000000000e+00
8.5183112630913792e-18 3.5281010063187979e+00 0.0000000000000000e+00
3.6378561854324674e-18 8.3076611651710876e-18 3.5281010063187979e+00
Mo 
2 
Cartesian
0.0000000000000000e+00 0.0000000000000000e+00 0.0000000000000000e+00
1.7640505031578722e+00 1.7640505031578722e+00 1.7640505031578722e+00
