Mo2 
1.0
3.1186010517607299e+00 0.0000000000000000e+00 0.0000000000000000e+00
7.5296071219967859e-18 3.1186010517607299e+00 0.0000000000000000e+00
3.2156171565737872e-18 7.3434067791633001e-18 3.1186010517607299e+00
Mo 
2 
Cartesian
0.0000000000000000e+00 0.0000000000000000e+00 0.0000000000000000e+00
1.5593005258790154e+00 1.5593005258790154e+00 1.5593005258790154e+00
