Mo2 
1.0
3.0634905202999998e+00 0.0000000000000000e+00 0.0000000000000000e+00 
0.0000000000000000e+00 3.0634905202999998e+00 0.0000000000000000e+00 
0.0000000000000000e+00 0.0000000000000000e+00 3.0634905202999998e+00 
Mo 
2 
Cartesian
  -0.0000000000   -0.0000000000   -0.0000000000
   1.5317452601    1.5317452601    1.5317452601
