Mo2 
1.0
3.0634905202860181e+00 0.0000000000000000e+00 0.0000000000000000e+00
7.3965472520737839e-18 3.0634905202860181e+00 0.0000000000000000e+00
3.1587921996213967e-18 7.2136373589271978e-18 3.0634905202860181e+00
Mo 
2 
Cartesian
0.0000000000000000e+00 0.0000000000000000e+00 0.0000000000000000e+00
1.5317452601416832e+00 1.5317452601416832e+00 1.5317452601416832e+00
