Mo2 
1.0
3.1822634734409982e+00 0.0000000000000000e+00 0.0000000000000000e+00
7.6833148312328453e-18 3.1822634734409982e+00 0.0000000000000000e+00
3.2812600432355891e-18 7.4933134364065825e-18 3.1822634734409982e+00
Mo 
2 
Cartesian
0.0000000000000000e+00 0.0000000000000000e+00 0.0000000000000000e+00
1.5911317367191218e+00 1.5911317367191218e+00 1.5911317367191218e+00
