Mo2 
1.0
3.3594111451000002e+00 0.0000000000000000e+00 0.0000000000000000e+00 
0.0000000000000000e+00 3.3594111451000002e+00 0.0000000000000000e+00 
0.0000000000000000e+00 0.0000000000000000e+00 3.3594111451000002e+00 
Mo 
2 
Cartesian
   0.0000000000    0.0000000000    0.0000000000
   1.6797055726    1.6797055726    1.6797055726
