Mo2 
1.0
2.7243489561242491e+00 0.0000000000000000e+00 0.0000000000000000e+00
6.5777176889156977e-18 2.7243489561242491e+00 0.0000000000000000e+00
2.8091003300537451e-18 6.4150567068891642e-18 2.7243489561242491e+00
Mo 
2 
Cartesian
0.0000000000000000e+00 0.0000000000000000e+00 0.0000000000000000e+00
1.3621744780609455e+00 1.3621744780609455e+00 1.3621744780609455e+00
