Mo2 
1.0
2.7662685818999999e+00 0.0000000000000000e+00 0.0000000000000000e+00 
0.0000000000000000e+00 2.7662685818999999e+00 0.0000000000000000e+00 
0.0000000000000000e+00 0.0000000000000000e+00 2.7662685818999999e+00 
Mo 
2 
Cartesian
   0.0000000000    0.0000000000    0.0000000000
   1.3831342909    1.3831342909    1.3831342909
