Mo2 
1.0
2.7662685819244039e+00 0.0000000000000000e+00 0.0000000000000000e+00
6.6789291961708750e-18 2.7662685819244039e+00 0.0000000000000000e+00
2.8523240273727801e-18 6.5137653455292510e-18 2.7662685819244039e+00
Mo 
2 
Cartesian
0.0000000000000000e+00 0.0000000000000000e+00 0.0000000000000000e+00
1.3831342909610047e+00 1.3831342909610047e+00 1.3831342909610047e+00
