Mo2 
1.0
3.4852800160293969e+00 0.0000000000000000e+00 0.0000000000000000e+00
8.4149234850131310e-18 3.4852800160293969e+00 0.0000000000000000e+00
3.5937030832078862e-18 8.2068300729080557e-18 3.4852800160293969e+00
Mo 
2 
Cartesian
0.0000000000000000e+00 0.0000000000000000e+00 0.0000000000000000e+00
1.7426400080131899e+00 1.7426400080131899e+00 1.7426400080131899e+00
