Mo2 
1.0
2.7384650058000002e+00 0.0000000000000000e+00 0.0000000000000000e+00 
0.0000000000000000e+00 2.7384650058000002e+00 0.0000000000000000e+00 
0.0000000000000000e+00 0.0000000000000000e+00 2.7384650058000002e+00 
Mo 
2 
Cartesian
   0.0000000000    0.0000000000    0.0000000000
   1.3692325029    1.3692325029    1.3692325029
