Mo2 
1.0
2.7384650058184952e+00 0.0000000000000000e+00 0.0000000000000000e+00
6.6117997361375586e-18 2.7384650058184952e+00 0.0000000000000000e+00
2.8236555138770294e-18 6.4482959360496898e-18 2.7384650058184952e+00
Mo 
2 
Cartesian
0.0000000000000000e+00 0.0000000000000000e+00 0.0000000000000000e+00
1.3692325029080623e+00 1.3692325029080623e+00 1.3692325029080623e+00
