Mo2 
1.0
3.5196199615732731e+00 0.0000000000000000e+00 0.0000000000000000e+00
8.4978344743460466e-18 3.5196199615732731e+00 0.0000000000000000e+00
3.6291113051041603e-18 8.2876907488065094e-18 3.5196199615732731e+00
Mo 
2 
Cartesian
0.0000000000000000e+00 0.0000000000000000e+00 0.0000000000000000e+00
1.7598099807851133e+00 1.7598099807851133e+00 1.7598099807851133e+00
