Mo2 
1.0
3.2131611676472507e+00 0.0000000000000000e+00 0.0000000000000000e+00
7.7579147863047928e-18 3.2131611676472507e+00 0.0000000000000000e+00
3.3131189292999354e-18 7.5660686023700538e-18 3.2131611676472507e+00
Mo 
2 
Cartesian
0.0000000000000000e+00 0.0000000000000000e+00 0.0000000000000000e+00
1.6065805838222347e+00 1.6065805838222347e+00 1.6065805838222347e+00
