Mo2 
1.0
3.2029281009999999e+00 0.0000000000000000e+00 0.0000000000000000e+00 
0.0000000000000000e+00 3.2029281009999999e+00 0.0000000000000000e+00 
0.0000000000000000e+00 0.0000000000000000e+00 3.2029281009999999e+00 
Mo 
2 
Cartesian
   0.0000000000    0.0000000000    0.0000000000
   1.6014640505    1.6014640505    1.6014640505
