Mo2 
1.0
2.6663663929000001e+00 0.0000000000000000e+00 0.0000000000000000e+00 
0.0000000000000000e+00 2.6663663929000001e+00 0.0000000000000000e+00 
0.0000000000000000e+00 0.0000000000000000e+00 2.6663663929000001e+00 
Mo 
2 
Cartesian
   0.2558765177    0.0000000491   -0.0000000519
   1.0773080119    1.3331831965    1.3331831965
