Mo2 
1.0
3.5365414715000001e+00 0.0000000000000000e+00 0.0000000000000000e+00 
0.0000000000000000e+00 3.5365414715000001e+00 0.0000000000000000e+00 
0.0000000000000000e+00 0.0000000000000000e+00 3.5365414715000001e+00 
Mo 
2 
Cartesian
   0.0000000000    0.0000000000    0.0000000000
   1.7682707358    1.7682707358    1.7682707358
