Mo2 
1.0
3.5365414715148442e+00 0.0000000000000000e+00 0.0000000000000000e+00
8.5386900758341103e-18 3.5365414715148442e+00 0.0000000000000000e+00
3.6465592238280155e-18 8.3275360283905885e-18 3.5365414715148442e+00
Mo 
2 
Cartesian
0.0000000000000000e+00 0.0000000000000000e+00 0.0000000000000000e+00
1.7682707357558913e+00 1.7682707357558913e+00 1.7682707357558913e+00
