Mo2 
1.0
2.8202581282852281e+00 0.0000000000000000e+00 0.0000000000000000e+00
6.8092825392386977e-18 2.8202581282852281e+00 0.0000000000000000e+00
2.9079931266490359e-18 6.6408951688601927e-18 2.8202581282852281e+00
Mo 
2 
Cartesian
0.0000000000000000e+00 0.0000000000000000e+00 0.0000000000000000e+00
1.4101290641413935e+00 1.4101290641413935e+00 1.4101290641413935e+00
