Mo2 
1.0
3.0522275858133168e+00 0.0000000000000000e+00 0.0000000000000000e+00
7.3693538181549577e-18 3.0522275858133168e+00 0.0000000000000000e+00
3.1471788881645376e-18 7.1871163939216180e-18 3.0522275858133168e+00
Mo 
2 
Cartesian
0.0000000000000000e+00 0.0000000000000000e+00 0.0000000000000000e+00
1.5261137929053372e+00 1.5261137929053372e+00 1.5261137929053372e+00
