Mo2 
1.0
3.3311794646394346e+00 0.0000000000000000e+00 0.0000000000000000e+00
8.0428603098935080e-18 3.3311794646394346e+00 0.0000000000000000e+00
3.4348086402629403e-18 7.8439676820578531e-18 3.3311794646394346e+00
Mo 
2 
Cartesian
0.0000000000000000e+00 0.0000000000000000e+00 0.0000000000000000e+00
1.6655897323182756e+00 1.6655897323182756e+00 1.6655897323182756e+00
