Mo2 
1.0
3.3120891918093109e+00 0.0000000000000000e+00 0.0000000000000000e+00
7.9967684078269061e-18 3.3120891918093109e+00 0.0000000000000000e+00
3.4151244909224659e-18 7.7990155908509141e-18 3.3120891918093109e+00
Mo 
2 
Cartesian
0.0000000000000000e+00 0.0000000000000000e+00 0.0000000000000000e+00
1.6560445959032222e+00 1.6560445959032222e+00 1.6560445959032222e+00
