Mo2 
1.0
3.3779718043759042e+00 0.0000000000000000e+00 0.0000000000000000e+00
8.1558365863350537e-18 3.3779718043759042e+00 0.0000000000000000e+00
3.4830566360647342e-18 7.9541501578316308e-18 3.3779718043759042e+00
Mo 
2 
Cartesian
0.0000000000000000e+00 0.0000000000000000e+00 0.0000000000000000e+00
1.6889859021864899e+00 1.6889859021864899e+00 1.6889859021864899e+00
