Mo2 
1.0
3.0967919392738246e+00 0.0000000000000000e+00 0.0000000000000000e+00
7.4769508039938405e-18 3.0967919392738246e+00 0.0000000000000000e+00
3.1931295875905900e-18 7.2920526040617905e-18 3.0967919392738246e+00
Mo 
2 
Cartesian
0.0000000000000000e+00 0.0000000000000000e+00 0.0000000000000000e+00
1.5483959696355720e+00 1.5483959696355720e+00 1.5483959696355720e+00
