Mo2 
1.0
2.8464945942000002e+00 0.0000000000000000e+00 0.0000000000000000e+00 
0.0000000000000000e+00 2.8464945942000002e+00 0.0000000000000000e+00 
0.0000000000000000e+00 0.0000000000000000e+00 2.8464945942000002e+00 
Mo 
2 
Cartesian
   0.0000000000    0.0000000000   -0.0000000000
   1.4232472971    1.4232472971    1.4232472971
