Mo2 
1.0
2.8464945942375919e+00 0.0000000000000000e+00 0.0000000000000000e+00
6.8726283400038874e-18 2.8464945942375919e+00 0.0000000000000000e+00
2.9350457789902683e-18 6.7026744855275485e-18 2.8464945942375919e+00
Mo 
2 
Cartesian
0.0000000000000000e+00 0.0000000000000000e+00 0.0000000000000000e+00
1.4232472971175640e+00 1.4232472971175640e+00 1.4232472971175640e+00
