Mo2 
1.0
2.9589709001637110e+00 0.0000000000000000e+00 0.0000000000000000e+00
7.1441931795267381e-18 2.9589709001637110e+00 0.0000000000000000e+00
3.0510210938962480e-18 6.9675237733089335e-18 2.9589709001637110e+00
Mo 
2 
Cartesian
0.0000000000000000e+00 0.0000000000000000e+00 0.0000000000000000e+00
1.4794854500805750e+00 1.4794854500805750e+00 1.4794854500805750e+00
