Mo2 
1.0
3.2633749215000001e+00 0.0000000000000000e+00 0.0000000000000000e+00 
0.0000000000000000e+00 3.2633749215000001e+00 0.0000000000000000e+00 
0.0000000000000000e+00 0.0000000000000000e+00 3.2633749215000001e+00 
Mo 
2 
Cartesian
  -0.0000000000   -0.0000000000   -0.0000000000
   1.6316874608    1.6316874608    1.6316874608
