Mo2 
1.0
3.0179299906744723e+00 0.0000000000000000e+00 0.0000000000000000e+00
7.2865450804105135e-18 3.0179299906744723e+00 0.0000000000000000e+00
3.1118143341458625e-18 7.1063554410227576e-18 3.0179299906744723e+00
Mo 
2 
Cartesian
0.0000000000000000e+00 0.0000000000000000e+00 0.0000000000000000e+00
1.5089649953359299e+00 1.5089649953359299e+00 1.5089649953359299e+00
