Mo2 
1.0
3.4054361951553118e+00 0.0000000000000000e+00 0.0000000000000000e+00
8.2221471111446226e-18 3.4054361951553118e+00 0.0000000000000000e+00
3.5113754125671817e-18 8.0188208836114557e-18 3.4054361951553118e+00
Mo 
2 
Cartesian
0.0000000000000000e+00 0.0000000000000000e+00 0.0000000000000000e+00
1.7027180975761820e+00 1.7027180975761820e+00 1.7027180975761820e+00
