Mo2 
1.0
2.9100533047999999e+00 0.0000000000000000e+00 0.0000000000000000e+00 
0.0000000000000000e+00 2.9100533047999999e+00 0.0000000000000000e+00 
0.0000000000000000e+00 0.0000000000000000e+00 2.9100533047999999e+00 
Mo 
2 
Cartesian
   0.0000000000    0.0000000000    0.0000000000
   1.4550266524    1.4550266524    1.4550266524
