Mo2 
1.0
2.9100533048397326e+00 0.0000000000000000e+00 0.0000000000000000e+00
7.0260856473259047e-18 2.9100533048397326e+00 0.0000000000000000e+00
3.0005817282411544e-18 6.8523369330686094e-18 2.9100533048397326e+00
Mo 
2 
Cartesian
0.0000000000000000e+00 0.0000000000000000e+00 0.0000000000000000e+00
1.4550266524186068e+00 1.4550266524186068e+00 1.4550266524186068e+00
