Mo2 
1.0
2.8594333838478296e+00 0.0000000000000000e+00 0.0000000000000000e+00
6.9038679890587921e-18 2.8594333838478296e+00 0.0000000000000000e+00
2.9483870795174672e-18 6.7331416064452249e-18 2.8594333838478296e+00
Mo 
2 
Cartesian
0.0000000000000000e+00 0.0000000000000000e+00 0.0000000000000000e+00
1.4297166919226771e+00 1.4297166919226771e+00 1.4297166919226771e+00
