Mo2 
1.0
3.1617699325125539e+00 0.0000000000000000e+00 0.0000000000000000e+00 
-5.0946029545270506e-18 3.1617699325125543e+00 0.0000000000000000e+00 
-1.7177678852134874e-18 -2.2318624465435661e-17 3.1617699325125539e+00 
Mo 
2 
Cartesian
   0.0000000000    0.0000000000    0.0000000000
   1.5808849663    1.5808849663    1.5808849663
