Mo2 
1.0
2.9946245819000001e+00 0.0000000000000000e+00 0.0000000000000000e+00 
0.0000000000000000e+00 2.9946245819000001e+00 0.0000000000000000e+00 
0.0000000000000000e+00 0.0000000000000000e+00 2.9946245819000001e+00 
Mo 
2 
Cartesian
  -0.0000000000   -0.0000000000   -0.0000000000
   1.4973122910    1.4973122910    1.4973122910
