Mo2 
1.0
2.9946245819000650e+00 0.0000000000000000e+00 0.0000000000000000e+00
7.2302760774260663e-18 2.9946245819000650e+00 0.0000000000000000e+00
3.0877839208124101e-18 7.0514779193569034e-18 2.9946245819000650e+00
Mo 
2 
Cartesian
0.0000000000000000e+00 0.0000000000000000e+00 0.0000000000000000e+00
1.4973122909487364e+00 1.4973122909487364e+00 1.4973122909487364e+00
