Mo2 
1.0
3.4765885085883914e+00 0.0000000000000000e+00 0.0000000000000000e+00
8.3939385513064827e-18 3.4765885085883914e+00 0.0000000000000000e+00
3.5847411929308317e-18 8.1863640775453618e-18 3.4765885085883914e+00
Mo 
2 
Cartesian
0.0000000000000000e+00 0.0000000000000000e+00 0.0000000000000000e+00
1.7382942542926911e+00 1.7382942542926911e+00 1.7382942542926911e+00
