Mo2 
1.0
2.7524370079074010e+00 0.0000000000000000e+00 0.0000000000000000e+00
6.6455339922001557e-18 2.7524370079074010e+00 0.0000000000000000e+00
2.8380621689390495e-18 6.4811959746103217e-18 2.7524370079074010e+00
Mo 
2 
Cartesian
0.0000000000000000e+00 0.0000000000000000e+00 0.0000000000000000e+00
1.3762185039525092e+00 1.3762185039525092e+00 1.3762185039525092e+00
