Mo2 
1.0
3.2334340141523703e+00 0.0000000000000000e+00 0.0000000000000000e+00
7.8068619157691131e-18 3.2334340141523703e+00 0.0000000000000000e+00
3.3340224408272095e-18 7.6138053137953844e-18 3.2334340141523703e+00
Mo 
2 
Cartesian
0.0000000000000000e+00 0.0000000000000000e+00 0.0000000000000000e+00
1.6167170070747858e+00 1.6167170070747858e+00 1.6167170070747858e+00
