Mo2 
1.0
3.3024609712325539e+00 0.0000000000000000e+00 0.0000000000000000e+00
7.9735218568818995e-18 3.3024609712325539e+00 0.0000000000000000e+00
3.4051967474374769e-18 7.7763439059892943e-18 3.3024609712325539e+00
Mo 
2 
Cartesian
0.0000000000000000e+00 0.0000000000000000e+00 0.0000000000000000e+00
1.6512304856148476e+00 1.6512304856148476e+00 1.6512304856148476e+00
