Mo2 
1.0
3.2534557876000001e+00 0.0000000000000000e+00 0.0000000000000000e+00 
0.0000000000000000e+00 3.2534557876000001e+00 0.0000000000000000e+00 
0.0000000000000000e+00 0.0000000000000000e+00 3.2534557876000001e+00 
Mo 
2 
Cartesian
   0.0000000000    0.0000000000    0.0000000000
   1.6267278938    1.6267278938    1.6267278938
