Mo2 
1.0
3.4235025076999999e+00 0.0000000000000000e+00 0.0000000000000000e+00 
0.0000000000000000e+00 3.4235025076999999e+00 0.0000000000000000e+00 
0.0000000000000000e+00 0.0000000000000000e+00 3.4235025076999999e+00 
Mo 
2 
Cartesian
   0.0000000000    0.0000000000    0.0000000000
   1.7117512538    1.7117512538    1.7117512538
