Mo2 
1.0
2.8849653900228236e+00 0.0000000000000000e+00 0.0000000000000000e+00
6.9655129293199259e-18 2.8849653900228236e+00 0.0000000000000000e+00
2.9747133571449645e-18 6.7932621233434130e-18 2.8849653900228236e+00
Mo 
2 
Cartesian
0.0000000000000000e+00 0.0000000000000000e+00 0.0000000000000000e+00
1.4424826950101630e+00 1.4424826950101630e+00 1.4424826950101630e+00
