Mo2 
1.0
2.9224366595661437e+00 0.0000000000000000e+00 0.0000000000000000e+00
7.0559842442912174e-18 2.9224366595661437e+00 0.0000000000000000e+00
3.0133503149418178e-18 6.8814961648964089e-18 2.9224366595661437e+00
Mo 
2 
Cartesian
0.0000000000000000e+00 0.0000000000000000e+00 0.0000000000000000e+00
1.4612183297818071e+00 1.4612183297818071e+00 1.4612183297818071e+00
