Mo2 
1.0
2.7100850877000000e+00 0.0000000000000000e+00 0.0000000000000000e+00 
0.0000000000000000e+00 2.7100850877000000e+00 0.0000000000000000e+00 
0.0000000000000000e+00 0.0000000000000000e+00 2.7100850877000000e+00 
Mo 
2 
Cartesian
  -0.0000000074    0.2506424903    0.0000000251
   1.3550425439    1.1044003245    1.3550425439
