Mo2 
1.0
2.7100850876728009e+00 0.0000000000000000e+00 0.0000000000000000e+00
6.5432787453969008e-18 2.7100850876728009e+00 0.0000000000000000e+00
2.7943927290011217e-18 6.3814694071528546e-18 2.7100850876728009e+00
Mo 
2 
Cartesian
0.0000000000000000e+00 0.0000000000000000e+00 0.0000000000000000e+00
1.3550425438352276e+00 1.3550425438352276e+00 1.3550425438352276e+00
