Mo2 
1.0
2.6810979978999998e+00 0.0000000000000000e+00 0.0000000000000000e+00 
0.0000000000000000e+00 2.6810979978999998e+00 0.0000000000000000e+00 
0.0000000000000000e+00 0.0000000000000000e+00 2.6810979978999998e+00 
Mo 
2 
Cartesian
   0.0000000000    0.0000000000    0.0000000000
   1.3405489989    1.3405489989    1.3405489989
