Mo2 
1.0
3.0857712342000001e+00 0.0000000000000000e+00 0.0000000000000000e+00 
0.0000000000000000e+00 3.0857712342000001e+00 0.0000000000000000e+00 
0.0000000000000000e+00 0.0000000000000000e+00 3.0857712342000001e+00 
Mo 
2 
Cartesian
   0.0000000000    0.0000000000    0.0000000000
   1.5428856171    1.5428856171    1.5428856171
