Mo2 
1.0
3.1293921448468511e+00 0.0000000000000000e+00 0.0000000000000000e+00
7.5556613334867456e-18 3.1293921448468511e+00 0.0000000000000000e+00
3.2267439481992580e-18 7.3688166936755990e-18 3.1293921448468511e+00
Mo 
2 
Cartesian
0.0000000000000000e+00 0.0000000000000000e+00 0.0000000000000000e+00
1.5646960724220711e+00 1.5646960724220711e+00 1.5646960724220711e+00
